\* Dreamteam *\
Maximize
OBJ: 29.423008199 x_0 + 30.599715316 x_1 + 54.184302385 x_10
 + 39.7736423844 x_11 + 20.3766456102 x_12 + 45.6044519311 x_13
 + 29.8931374485 x_14 + 7.80212543987 x_15 + 41.9546584849 x_16
 + 63.6237897344 x_17 + 24.4595126498 x_18 + 20.1910353843 x_19
 + 31.8021272199 x_2 + 25.7281174979 x_20 + 17.8481119546 x_21
 + 29.0675132808 x_3 + 20.6826153603 x_4 + 35.4906166089 x_5
 + 43.2934101538 x_6 + 41.451344166 x_7 + 23.0319525488 x_8
 + 23.6477494384 x_9
Subject To
_C1: x_0 + x_10 + x_11 + x_12 + x_13 + x_3 + x_7 + x_8 + x_9 <= 5
_C2: x_2 + x_4 + x_5 + x_6 <= 3
_C3: x_1 + x_14 + x_15 + x_16 + x_17 + x_18 + x_19 + x_20 + x_21 <= 5
_C4: x_0 + x_1 + x_10 + x_11 + x_12 + x_13 + x_14 + x_15 + x_16 + x_17 + x_18
 + x_19 + x_2 + x_20 + x_21 + x_3 + x_4 + x_5 + x_6 + x_7 + x_8 + x_9 = 11
_C5: x_1 + x_10 + x_12 + x_13 + x_14 + x_15 + x_17 + x_18 + x_19 + x_6 + x_9
 <= 7
_C6: x_0 + x_11 + x_16 + x_2 + x_20 + x_21 + x_3 + x_4 + x_5 + x_7 + x_8 <= 7
Binaries
x_0
x_1
x_10
x_11
x_12
x_13
x_14
x_15
x_16
x_17
x_18
x_19
x_2
x_20
x_21
x_3
x_4
x_5
x_6
x_7
x_8
x_9
End
